
Gurobi 10.0.1 (linux64) logging started Sun Nov 26 15:37:31 2023

Set parameter LogFile to value "ArtificialInstance/ExperimentV2/S3T4K2/AdSp/gurobi1.txt"
Gurobi Optimizer version 10.0.1 build v10.0.1rc0 (linux64)

CPU model: AMD EPYC 7H12 64-Core Processor, instruction set [SSE2|AVX|AVX2]
Thread count: 128 physical cores, 128 logical processors, using up to 32 threads

Academic license 656792 - for non-commercial use only - registered to b.___@student.vu.nl
Optimize a model with 9000 rows, 8652 columns and 33000 nonzeros
Model fingerprint: 0x38b04660
Variable types: 0 continuous, 8652 integer (8652 binary)
Coefficient statistics:
  Matrix range     [1e+00, 1e+00]
  Objective range  [1e+00, 2e+01]
  Bounds range     [1e+00, 1e+00]
  RHS range        [1e+00, 1e+00]
Presolve removed 1542 rows and 1578 columns
Presolve time: 0.13s
Presolved: 7458 rows, 7074 columns, 27834 nonzeros
Variable types: 0 continuous, 7074 integer (7074 binary)
Found heuristic solution: objective 346.9215029

Root relaxation: objective 6.207439e+01, 5885 iterations, 0.48 seconds (0.41 work units)

    Nodes    |    Current Node    |     Objective Bounds      |     Work
 Expl Unexpl |  Obj  Depth IntInf | Incumbent    BestBd   Gap | It/Node Time

*    0     0               0      62.0743907   62.07439  0.00%     -    0s

Explored 1 nodes (5885 simplex iterations) in 0.66 seconds (0.54 work units)
Thread count was 32 (of 128 available processors)

Solution count 2: 62.0744 346.922 

Optimal solution found (tolerance 1.00e-04)
Best objective 6.207439070560e+01, best bound 6.207439070560e+01, gap 0.0000%
